column=6;
row=6;
Board=[|2,6,3,0,0,5|0,0,2,0,0,1|0,0,6,0,0,0|4,5,0,0,3,6|0,1,4,5,0,2|1,2,0,6,0,0|];
horizontal=[|0,0,0,0,0|0,2,0,0,0|0,1,0,1,1|1,2,1,0,0|2,0,0,1,0|0,1,0,2,0|];
vertical=[|1,2,0,0,0,2|0,2,0,0,2,0|0,0,0,1,0,1|0,0,1,1,0,2|0,1,0,1,2,0|];
